50 8
384 465
296 751
277 522
318 501
785 179
252 275
456 649
878 841
207 221
533 284
578 390
222 480
169 238
477 660
828 399
869 444
592 220
505 399
831 861
165 717
444 330
816 398
557 209
525 231
903 317
502 682
641 256
774 355
717 360
817 883
769 396
943 864
612 502
353 475
371 741
295 317
380 420
168 165
929 155
254 485
854 421
371 807
657 626
506 476
216 190
780 257
245 436
133 731
396 520
153 656
